


*************************************************************

   NEOS Server Version 6.0
   Job#     : 18279512
   Password : udayLcgf
   User     : None

   Disclaimer:

   This information is provided without any express or
   implied warranty. In particular, there is no warranty
   of any kind concerning the fitness of this
   information for any particular purpose.

   Announcements:
*************************************************************

Running:

  Job #    Cat   Solver     Input  Submitted    Started      Elapsed  Email  Host 
-------------------------------------------------------------------------------------------------------
18279304   cp    Knitro     AMPL   01/25 05:00  01/25 05:00  1:18:36  jeong  prod-sub-1.neos-server.org
18279471   lp    cplex      AMPL   01/25 06:08  01/25 06:08  0:10:41  gxfXT  prod-sub-1.neos-server.org
18279493   lp    cplex      AMPL   01/25 06:08  01/25 06:08  0:10:10  MqrDs  prod-sub-1.neos-server.org
18279506   lp    cplex      AMPL   01/25 06:14  01/25 06:14  0:04:18  Firmk  prod-sub-1.neos-server.org

Queued:

  Job #   Cat   Solver     Input  Submitted
---------------------------------------------------
18279512  milp  Gurobi     AMPL   01/25 06:19

Job 18279512 dispatched
password: udayLcgf
---------- Begin Solver Output -----------
Condor submit: 'neos.submit'
Condor submit: 'watchdog.submit'
Job submitted to NEOS HTCondor pool.
You are using the solver gurobi_ampl.
Checking ampl.mod for gurobi_options...
Checking ampl.com for gurobi_options...
Executing AMPL.
processing data.
processing commands.
Executing on prod-exec-1.neos-server.org
N = 10


"option presolve 0;" used, but "option presolve 10;" might work better.
100 variables, all binary
58 constraints, all linear; 400 nonzeros
	20 equality constraints
	38 inequality constraints
1 linear objective; 0 nonzeros.

Gurobi 12.0.3:   tech:threads = 4
  pre:solve = 2
  alg:iisfind = 1
Set parameter LogToConsole to value 1
  tech:outlev = 1

AMPL MP initial flat model has 100 variables (0 integer, 100 binary);
Objectives: 1 linear; 
Constraints:  58 linear;

AMPL MP final model has 100 variables (0 integer, 100 binary);
Objectives: 1 linear; 
Constraints:  58 linear;


Set parameter InfUnbdInfo to value 1
Gurobi Optimizer version 12.0.3 build v12.0.3rc0 (linux64 - "Rocky Linux 8.10 (Green Obsidian)")

CPU model: Intel(R) Xeon(R) CPU E5-2698 v3 @ 2.30GHz, instruction set [SSE2|AVX|AVX2]
Thread count: 32 physical cores, 64 logical processors, using up to 4 threads

Non-default parameters:
InfUnbdInfo  1
Presolve  2
Threads  4

Optimize a model with 58 rows, 100 columns and 400 nonzeros
Model fingerprint: 0xf28ea068
Variable types: 0 continuous, 100 integer (0 binary)
Coefficient statistics:
  Matrix range     [1e+00, 1e+00]
  Objective range  [0e+00, 0e+00]
  Bounds range     [1e+00, 1e+00]
  RHS range        [1e+00, 1e+00]
Found heuristic solution: objective 0.0000000

Explored 0 nodes (0 simplex iterations) in 0.00 seconds (0.00 work units)
Thread count was 1 (of 64 available processors)

Solution count 1: 0 

Optimal solution found (tolerance 1.00e-04)
Best objective 0.000000000000e+00, best bound 0.000000000000e+00, gap 0.0000%
Gurobi 12.0.3: optimal solution; objective 0
0 simplex iterations
Solution
========
 1  7 
 2  1 
 3  4 
 4  6 
 5  9 
 6  3 
 7 10 
 8  8 
 9  2 
10  5 
Job completed ... awaiting results.
